(set-info :smt-lib-version 2.6)
(set-logic QF_S)
(set-info :source |
Generated by: Hung-En Wang, Tzung-Lin Tsai, Chun-Han Lin, Fang Yu, and Jie-Hong R. Jiang
Generated on: 2019-02-28
Generator: Stranger
Application: Security analysis of string manipulating web applications
Target solver: CVC4, Norn, Z3-str2
Publication:
Hung-En Wang, Tzung-Lin Tsai, Chun-Han Lin, Fang Yu, Jie-Hong R. Jiang:
String Analysis via Automata Manipulation with Logic Circuit Representation. CAV (1) 2016: 241-260.
|)
(set-info :license "https://creativecommons.org/licenses/by/4.0/")
(set-info :category "industrial")
(set-info :status unknown)

(declare-fun sigmaStar_0 () String)
(declare-fun sigmaStar_1 () String)
(declare-fun literal_2 () String)
(declare-fun x_3 () String)
(declare-fun literal_6 () String)
(declare-fun x_7 () String)
(declare-fun literal_5 () String)
(declare-fun x_8 () String)
(assert (= literal_2 "\x2f\x6c\x61\x6e\x67\x2f"))
(assert (= x_3 (str.++ literal_2 sigmaStar_0)))
(assert (= literal_6 "\x2f"))
(assert (= x_7 (str.++ x_3 literal_6)))
(assert (= literal_5 "\x63\x75\x72\x72\x65\x6e\x74\x66\x69\x6c\x65"))
(assert (= x_8 (str.++ x_7 literal_5)))
(assert (str.in.re x_8 (re.++ (re.* re.allchar) (re.++ (str.to.re "\x2f\x65\x76\x69\x6c") (re.* re.allchar)))))
(check-sat)
(exit)
